Geographic Exponential Decay
20 199 59 126 299 234 189 53 22 191 266 285 233 45 271 72 64 232 258 279 212
p edge 320 1208
e 0 203 1.0
e 0 230 1.0
e 1 4 2.0
e 1 247 1.0
e 2 21 1.0
e 2 300 8.0
e 3 141 6.0
e 3 168 1.0
e 4 71 1.0
e 5 229 7.0
e 5 195 2.0
e 5 314 1.0
e 6 314 2.0
e 6 55 2.0
e 7 95 1.0
e 7 156 4.0
e 8 192 11.0
e 8 122 11.0
e 8 240 2.0
e 8 102 3.0
e 8 218 5.0
e 9 316 2.0
e 9 220 1.0
e 10 227 1.0
e 10 201 3.0
e 11 20 6.0
e 11 127 10.0
e 11 169 11.0
e 11 293 5.0
e 11 106 10.0
e 12 9 1.0
e 12 115 1.0
e 13 301 1.0
e 13 256 1.0
e 14 265 1.0
e 14 168 1.0
e 15 196 4.0
e 15 111 15.0
e 15 90 1.0
e 16 252 5.0
e 16 260 8.0
e 16 138 7.0
e 16 47 10.0
e 16 163 1.0
e 17 178 2.0
e 17 252 3.0
e 18 270 4.0
e 18 19 1.0
e 18 67 3.0
e 19 200 1.0
e 20 159 3.0
e 20 212 16.0
e 21 149 10.0
e 22 260 47.0
e 22 164 1.0
e 22 7 12.0
e 22 313 59.0
e 22 259 9.0
e 22 113 88.0
e 22 223 25.0
e 22 68 80.0
e 22 243 61.0
e 22 250 40.0
e 22 232 2.0
e 22 161 11.0
e 22 295 91.0
e 22 201 99.0
e 22 40 33.0
e 22 143 48.0
e 22 2 52.0
e 22 69 49.0
e 22 200 86.0
e 22 47 47.0
e 22 302 34.0
e 22 303 69.0
e 22 103 37.0
e 22 286 57.0
e 22 34 78.0
e 22 62 44.0
e 22 126 44.0
e 22 181 75.0
e 22 197 20.0
e 22 3 82.0
e 22 56 4.0
e 22 4 54.0
e 22 171 20.0
e 22 204 24.0
e 22 39 56.0
e 22 262 40.0
e 22 127 55.0
e 23 170 17.0
e 23 62 1.0
e 23 313 1.0
e 23 298 8.0
e 23 3 5.0
e 24 131 2.0
e 24 57 1.0
e 25 308 1.0
e 25 103 3.0
e 26 129 1.0
e 26 163 3.0
e 27 186 16.0
e 27 230 5.0
e 27 290 10.0
e 27 153 7.0
e 27 103 1.0
e 27 90 15.0
e 27 140 6.0
e 27 260 23.0
e 27 166 4.0
e 27 291 6.0
e 28 107 1.0
e 28 171 1.0
e 28 308 4.0
e 29 158 1.0
e 29 119 4.0
e 30 246 1.0
e 30 51 2.0
e 31 14 1.0
e 31 235 1.0
e 32 168 1.0
e 32 33 9.0
e 33 99 4.0
e 33 76 42.0
e 33 271 82.0
e 33 44 43.0
e 33 24 9.0
e 33 4 43.0
e 33 8 16.0
e 33 241 21.0
e 33 60 25.0
e 33 87 20.0
e 33 95 28.0
e 33 64 96.0
e 33 297 9.0
e 33 272 47.0
e 33 142 40.0
e 33 188 20.0
e 33 50 5.0
e 33 273 11.0
e 34 73 5.0
e 34 193 5.0
e 35 303 6.0
e 35 136 12.0
e 35 137 4.0
e 35 160 19.0
e 35 255 6.0
e 36 80 9.0
e 36 288 5.0
e 36 308 4.0
e 37 227 1.0
e 37 303 3.0
e 38 252 2.0
e 38 86 6.0
e 38 56 2.0
e 38 76 8.0
e 38 200 8.0
e 39 177 4.0
e 39 280 4.0
e 40 286 5.0
e 41 285 62.0
e 41 68 3.0
e 41 279 42.0
e 41 229 10.0
e 41 295 8.0
e 42 235 1.0
e 42 93 1.0
e 43 298 2.0
e 43 306 2.0
e 44 202 4.0
e 44 256 1.0
e 45 65 97.0
e 45 39 62.0
e 45 262 60.0
e 45 282 17.0
e 45 248 39.0
e 45 184 66.0
e 45 273 28.0
e 45 18 69.0
e 45 134 21.0
e 45 109 63.0
e 45 24 33.0
e 45 281 83.0
e 45 6 24.0
e 45 209 9.0
e 45 159 31.0
e 45 317 4.0
e 45 84 39.0
e 45 120 35.0
e 45 33 3.0
e 45 197 76.0
e 45 97 48.0
e 45 101 31.0
e 45 249 15.0
e 45 23 45.0
e 45 52 40.0
e 45 153 16.0
e 45 259 34.0
e 45 220 90.0
e 45 29 74.0
e 45 210 80.0
e 45 49 90.0
e 45 165 54.0
e 45 161 34.0
e 45 235 6.0
e 45 113 14.0
e 45 175 58.0
e 45 196 54.0
e 46 64 15.0
e 46 270 3.0
e 47 206 12.0
e 47 138 9.0
e 47 128 8.0
e 48 292 14.0
e 48 219 1.0
e 49 108 5.0
e 50 132 1.0
e 51 43 2.0
e 52 0 8.0
e 52 285 7.0
e 52 12 3.0
e 52 124 5.0
e 53 94 35.0
e 53 252 13.0
e 53 279 32.0
e 53 86 1.0
e 53 118 40.0
e 53 298 1.0
e 53 172 36.0
e 53 274 65.0
e 53 301 34.0
e 53 291 40.0
e 53 169 68.0
e 53 146 42.0
e 53 92 58.0
e 53 266 52.0
e 53 283 66.0
e 53 280 63.0
e 53 207 1.0
e 53 114 17.0
e 53 74 12.0
e 53 79 70.0
e 53 294 78.0
e 53 69 23.0
e 53 42 93.0
e 53 142 66.0
e 53 24 91.0
e 53 124 54.0
e 53 165 21.0
e 53 275 42.0
e 53 208 4.0
e 53 68 67.0
e 53 119 94.0
e 53 29 29.0
e 53 121 95.0
e 53 16 6.0
e 53 70 20.0
e 53 99 69.0
e 53 147 49.0
e 54 35 12.0
e 54 84 4.0
e 54 83 1.0
e 55 31 2.0
e 57 134 2.0
e 58 22 82.0
e 58 224 12.0
e 58 17 1.0
e 59 165 49.0
e 59 154 20.0
e 59 29 30.0
e 59 51 57.0
e 59 106 28.0
e 59 258 9.0
e 59 3 65.0
e 59 268 47.0
e 59 34 9.0
e 59 45 45.0
e 59 182 71.0
e 59 38 69.0
e 59 35 80.0
e 59 107 40.0
e 59 205 69.0
e 59 303 94.0
e 59 288 24.0
e 59 220 85.0
e 59 142 22.0
e 59 69 94.0
e 59 115 9.0
e 59 68 95.0
e 59 167 62.0
e 59 161 41.0
e 59 55 13.0
e 59 100 19.0
e 59 74 19.0
e 59 317 70.0
e 59 188 79.0
e 59 93 38.0
e 59 81 86.0
e 59 227 54.0
e 59 166 31.0
e 59 149 58.0
e 59 67 93.0
e 59 94 75.0
e 59 126 60.0
e 60 20 2.0
e 60 278 4.0
e 61 112 1.0
e 61 81 1.0
e 63 70 3.0
e 63 217 7.0
e 63 59 72.0
e 63 212 41.0
e 63 90 10.0
e 64 236 61.0
e 64 49 56.0
e 64 52 45.0
e 64 101 75.0
e 64 169 77.0
e 64 285 97.0
e 64 145 64.0
e 64 35 62.0
e 64 94 8.0
e 64 267 10.0
e 64 93 27.0
e 64 120 43.0
e 64 233 81.0
e 64 27 6.0
e 64 15 46.0
e 64 181 83.0
e 64 168 72.0
e 64 280 8.0
e 64 17 46.0
e 64 116 87.0
e 64 75 78.0
e 64 313 4.0
e 64 55 68.0
e 64 282 97.0
e 64 30 58.0
e 64 237 41.0
e 64 91 58.0
e 64 18 20.0
e 64 224 65.0
e 64 195 44.0
e 64 83 33.0
e 64 246 19.0
e 64 126 84.0
e 64 241 21.0
e 64 112 24.0
e 65 265 1.0
e 66 88 7.0
e 66 181 7.0
e 66 313 2.0
e 66 252 3.0
e 66 96 3.0
e 71 276 1.0
e 72 273 49.0
e 72 51 91.0
e 72 156 50.0
e 72 155 71.0
e 72 274 43.0
e 72 211 19.0
e 72 309 37.0
e 72 2 94.0
e 72 119 78.0
e 72 185 31.0
e 72 148 33.0
e 72 78 87.0
e 72 176 8.0
e 72 224 5.0
e 72 289 99.0
e 72 9 50.0
e 72 227 66.0
e 72 144 88.0
e 72 76 68.0
e 72 263 81.0
e 72 310 52.0
e 72 177 65.0
e 72 300 24.0
e 72 250 100.0
e 72 159 66.0
e 72 217 90.0
e 72 101 22.0
e 72 175 58.0
e 72 236 93.0
e 72 120 84.0
e 72 205 17.0
e 72 311 35.0
e 72 64 1.0
e 72 314 6.0
e 72 226 14.0
e 72 77 51.0
e 72 275 91.0
e 73 214 5.0
e 73 138 6.0
e 74 161 11.0
e 74 137 4.0
e 74 287 11.0
e 75 263 1.0
e 77 12 1.0
e 78 250 2.0
e 79 268 2.0
e 80 134 1.0
e 80 311 12.0
e 80 292 6.0
e 80 309 6.0
e 82 85 1.0
e 82 316 6.0
e 82 125 1.0
e 83 73 4.0
e 84 185 1.0
e 85 8 9.0
e 85 260 9.0
e 85 296 8.0
e 85 74 1.0
e 87 160 14.0
e 88 271 80.0
e 88 204 1.0
e 89 115 1.0
e 89 82 3.0
e 91 202 1.0
e 92 62 1.0
e 96 79 1.0
e 97 65 6.0
e 97 225 5.0
e 97 124 5.0
e 97 252 6.0
e 98 221 6.0
e 98 33 22.0
e 98 38 2.0
e 100 33 32.0
e 102 9 1.0
e 104 154 1.0
e 104 81 3.0
e 105 184 4.0
e 105 274 1.0
e 105 276 4.0
e 108 112 1.0
e 108 196 4.0
e 109 152 5.0
e 109 79 4.0
e 110 132 1.0
e 110 300 20.0
e 111 92 16.0
e 111 260 12.0
e 111 110 2.0
e 111 188 3.0
e 111 144 3.0
e 111 208 17.0
e 111 12 20.0
e 111 290 22.0
e 111 81 10.0
e 114 105 2.0
e 116 274 7.0
e 116 139 4.0
e 116 33 30.0
e 116 164 4.0
e 117 190 6.0
e 117 285 39.0
e 118 106 1.0
e 121 78 3.0
e 122 293 11.0
e 123 102 24.0
e 123 264 21.0
e 123 303 6.0
e 123 59 74.0
e 123 182 24.0
e 123 49 13.0
e 123 38 10.0
e 123 254 12.0
e 123 187 11.0
e 123 240 1.0
e 125 35 1.0
e 126 260 24.0
e 126 186 45.0
e 126 73 39.0
e 126 117 29.0
e 126 111 18.0
e 126 127 26.0
e 126 172 82.0
e 126 87 29.0
e 126 81 3.0
e 126 10 77.0
e 126 295 45.0
e 126 158 28.0
e 126 182 62.0
e 126 15 22.0
e 126 291 38.0
e 126 159 19.0
e 126 55 59.0
e 126 29 29.0
e 126 2 36.0
e 126 97 14.0
e 126 142 98.0
e 126 218 36.0
e 126 276 92.0
e 126 110 87.0
e 126 171 63.0
e 126 101 54.0
e 126 109 57.0
e 126 160 16.0
e 126 294 57.0
e 126 124 42.0
e 126 68 55.0
e 126 144 42.0
e 126 310 51.0
e 126 205 29.0
e 127 274 10.0
e 127 128 5.0
e 129 288 1.0
e 130 231 12.0
e 130 181 1.0
e 131 65 2.0
e 133 116 10.0
e 133 172 1.0
e 133 168 4.0
e 135 247 1.0
e 135 71 1.0
e 136 300 13.0
e 139 225 3.0
e 139 170 32.0
e 140 31 3.0
e 141 260 5.0
e 141 247 2.0
e 143 249 1.0
e 145 62 2.0
e 146 109 1.0
e 146 202 6.0
e 147 70 1.0
e 148 247 1.0
e 148 114 10.0
e 148 295 8.0
e 148 235 9.0
e 149 97 5.0
e 149 246 1.0
e 149 225 11.0
e 150 278 1.0
e 150 46 1.0
e 151 146 3.0
e 151 209 2.0
e 152 276 4.0
e 152 199 15.0
e 153 8 1.0
e 155 0 10.0
e 155 282 9.0
e 155 151 12.0
e 155 287 10.0
e 156 135 1.0
e 157 169 2.0
e 157 288 5.0
e 160 157 13.0
e 160 163 18.0
e 160 143 1.0
e 160 178 13.0
e 160 0 11.0
e 160 98 16.0
e 160 191 28.0
e 162 90 3.0
e 162 125 5.0
e 162 91 1.0
e 164 281 1.0
e 164 96 6.0
e 164 58 7.0
e 166 79 2.0
e 167 161 1.0
e 170 119 33.0
e 170 129 50.0
e 170 104 24.0
e 170 283 4.0
e 170 197 37.0
e 170 300 40.0
e 170 209 27.0
e 170 315 44.0
e 170 62 41.0
e 170 198 19.0
e 170 25 15.0
e 170 220 10.0
e 170 118 18.0
e 170 105 27.0
e 170 174 8.0
e 170 32 49.0
e 170 239 46.0
e 173 218 6.0
e 173 209 4.0
e 173 62 5.0
e 173 219 6.0
e 173 291 11.0
e 174 306 11.0
e 174 303 1.0
e 174 93 18.0
e 174 212 19.0
e 174 0 8.0
e 174 46 8.0
e 174 199 5.0
e 174 215 21.0
e 174 283 11.0
e 176 9 2.0
e 177 263 2.0
e 179 38 11.0
e 179 187 2.0
e 180 188 3.0
e 180 147 1.0
e 183 104 17.0
e 183 63 9.0
e 183 52 7.0
e 183 304 1.0
e 183 296 5.0
e 183 110 16.0
e 183 150 20.0
e 183 302 18.0
e 183 234 75.0
e 183 318 10.0
e 189 283 50.0
e 189 83 94.0
e 189 111 88.0
e 189 134 79.0
e 189 18 6.0
e 189 11 11.0
e 189 170 90.0
e 189 225 14.0
e 189 135 39.0
e 189 181 53.0
e 189 256 87.0
e 189 185 65.0
e 189 268 42.0
e 189 106 28.0
e 189 280 9.0
e 189 258 84.0
e 189 36 59.0
e 189 41 46.0
e 189 301 23.0
e 189 173 60.0
e 189 182 98.0
e 189 126 62.0
e 189 197 5.0
e 189 302 15.0
e 189 131 85.0
e 189 255 29.0
e 189 160 45.0
e 189 114 98.0
e 189 90 23.0
e 189 298 30.0
e 189 50 45.0
e 189 119 56.0
e 189 243 83.0
e 189 69 59.0
e 189 23 41.0
e 189 274 35.0
e 189 143 89.0
e 190 112 8.0
e 190 88 6.0
e 190 207 13.0
e 190 66 1.0
e 191 120 14.0
e 191 247 66.0
e 191 70 57.0
e 191 251 87.0
e 191 93 57.0
e 191 104 35.0
e 191 38 33.0
e 191 17 60.0
e 191 57 50.0
e 191 211 52.0
e 191 289 35.0
e 191 110 49.0
e 191 229 37.0
e 191 129 75.0
e 191 56 9.0
e 191 173 49.0
e 191 95 75.0
e 191 39 93.0
e 191 240 31.0
e 191 307 41.0
e 191 268 36.0
e 191 221 93.0
e 191 184 90.0
e 191 0 96.0
e 191 28 98.0
e 191 175 16.0
e 191 300 89.0
e 191 26 10.0
e 191 136 71.0
e 191 102 77.0
e 191 4 82.0
e 191 3 31.0
e 191 273 71.0
e 191 90 97.0
e 191 62 78.0
e 191 61 54.0
e 192 262 1.0
e 193 101 5.0
e 193 177 4.0
e 194 108 5.0
e 194 10 1.0
e 198 246 4.0
e 198 264 1.0
e 199 235 9.0
e 199 231 73.0
e 199 37 72.0
e 199 258 87.0
e 199 157 95.0
e 199 131 1.0
e 199 232 77.0
e 199 267 25.0
e 199 61 69.0
e 199 140 45.0
e 199 313 53.0
e 199 204 62.0
e 199 260 99.0
e 199 10 36.0
e 199 196 33.0
e 199 153 36.0
e 199 216 40.0
e 199 183 42.0
e 199 289 13.0
e 199 252 52.0
e 199 209 63.0
e 199 280 45.0
e 199 120 7.0
e 199 314 75.0
e 199 33 37.0
e 199 74 33.0
e 199 230 53.0
e 199 192 44.0
e 199 175 49.0
e 199 271 67.0
e 199 122 39.0
e 199 5 71.0
e 199 130 40.0
e 199 171 8.0
e 199 70 28.0
e 201 89 5.0
e 203 26 2.0
e 203 132 3.0
e 206 116 4.0
e 206 296 1.0
e 207 145 24.0
e 207 47 19.0
e 207 244 11.0
e 207 121 3.0
e 207 137 9.0
e 207 16 7.0
e 207 133 1.0
e 207 38 22.0
e 210 145 4.0
e 210 268 1.0
e 212 291 4.0
e 212 265 62.0
e 212 117 38.0
e 212 95 87.0
e 212 287 52.0
e 212 13 64.0
e 212 116 57.0
e 212 306 63.0
e 212 256 95.0
e 212 215 99.0
e 212 9 2.0
e 212 54 55.0
e 212 143 19.0
e 212 36 49.0
e 212 219 72.0
e 212 0 63.0
e 212 81 65.0
e 212 41 31.0
e 212 285 36.0
e 212 258 34.0
e 212 19 74.0
e 212 42 90.0
e 212 246 34.0
e 212 10 92.0
e 212 22 25.0
e 212 26 33.0
e 212 263 23.0
e 212 17 75.0
e 212 188 59.0
e 212 134 82.0
e 212 28 23.0
e 212 67 51.0
e 212 145 31.0
e 212 85 70.0
e 213 150 2.0
e 213 259 2.0
e 214 40 1.0
e 216 314 1.0
e 221 82 24.0
e 221 112 23.0
e 221 269 1.0
e 221 181 18.0
e 221 250 11.0
e 221 251 13.0
e 221 206 5.0
e 221 262 13.0
e 222 64 25.0
e 222 141 1.0
e 223 248 5.0
e 223 61 4.0
e 224 305 13.0
e 224 133 20.0
e 224 196 6.0
e 224 179 13.0
e 224 122 19.0
e 224 183 11.0
e 224 141 21.0
e 226 221 2.0
e 228 289 1.0
e 228 35 8.0
e 229 275 11.0
e 229 301 11.0
e 231 257 11.0
e 231 274 7.0
e 231 214 3.0
e 232 216 61.0
e 232 234 46.0
e 232 285 1.0
e 232 307 39.0
e 232 26 72.0
e 232 104 81.0
e 232 258 41.0
e 232 254 99.0
e 232 213 16.0
e 232 261 79.0
e 232 298 91.0
e 232 288 34.0
e 232 293 69.0
e 232 52 14.0
e 232 27 89.0
e 232 53 43.0
e 232 245 50.0
e 232 165 69.0
e 232 135 42.0
e 232 5 17.0
e 232 21 33.0
e 232 56 50.0
e 232 51 63.0
e 232 44 76.0
e 232 1 21.0
e 232 239 86.0
e 232 300 3.0
e 232 12 34.0
e 232 54 35.0
e 232 99 90.0
e 232 221 64.0
e 232 190 50.0
e 232 195 34.0
e 232 55 56.0
e 232 201 17.0
e 233 299 41.0
e 233 259 90.0
e 233 172 86.0
e 233 263 94.0
e 233 37 40.0
e 233 137 69.0
e 233 210 61.0
e 233 131 100.0
e 233 69 54.0
e 233 7 8.0
e 233 250 29.0
e 233 108 68.0
e 233 99 45.0
e 233 132 2.0
e 233 91 70.0
e 233 103 37.0
e 233 40 58.0
e 233 310 38.0
e 233 8 46.0
e 233 207 78.0
e 233 218 34.0
e 233 217 12.0
e 233 308 79.0
e 233 65 85.0
e 233 31 23.0
e 233 229 25.0
e 233 156 46.0
e 233 5 76.0
e 233 176 28.0
e 233 79 32.0
e 233 230 12.0
e 233 101 74.0
e 233 257 12.0
e 233 247 52.0
e 233 309 85.0
e 233 243 88.0
e 234 72 92.0
e 234 81 81.0
e 234 4 31.0
e 234 218 92.0
e 234 174 87.0
e 234 185 80.0
e 234 103 37.0
e 234 138 89.0
e 234 160 98.0
e 234 228 10.0
e 234 152 69.0
e 234 148 51.0
e 234 308 2.0
e 234 5 80.0
e 234 90 15.0
e 234 203 32.0
e 234 30 45.0
e 234 207 5.0
e 234 12 61.0
e 234 144 55.0
e 234 301 69.0
e 234 244 42.0
e 234 91 15.0
e 234 242 68.0
e 234 89 21.0
e 234 195 50.0
e 234 268 39.0
e 234 317 92.0
e 234 78 68.0
e 234 105 71.0
e 234 269 41.0
e 234 270 12.0
e 234 67 55.0
e 234 312 82.0
e 234 209 71.0
e 236 75 4.0
e 237 63 3.0
e 238 304 4.0
e 238 203 2.0
e 239 288 19.0
e 239 186 1.0
e 239 113 8.0
e 239 80 8.0
e 239 256 2.0
e 239 216 10.0
e 239 109 3.0
e 239 264 18.0
e 242 152 1.0
e 245 136 1.0
e 249 103 1.0
e 251 67 11.0
e 251 261 41.0
e 251 210 25.0
e 251 127 22.0
e 251 100 33.0
e 251 52 6.0
e 251 68 38.0
e 251 115 33.0
e 251 298 18.0
e 251 316 16.0
e 251 53 66.0
e 251 161 48.0
e 251 226 10.0
e 251 171 19.0
e 251 32 14.0
e 251 47 24.0
e 251 13 41.0
e 253 197 4.0
e 253 225 2.0
e 254 225 1.0
e 254 205 11.0
e 254 138 7.0
e 258 177 16.0
e 258 153 78.0
e 258 8 17.0
e 258 312 99.0
e 258 87 37.0
e 258 10 47.0
e 258 68 70.0
e 258 317 69.0
e 258 219 13.0
e 258 259 53.0
e 258 204 58.0
e 258 111 62.0
e 258 225 21.0
e 258 260 31.0
e 258 16 9.0
e 258 244 23.0
e 258 77 49.0
e 258 46 36.0
e 258 307 85.0
e 258 48 27.0
e 258 255 91.0
e 258 130 81.0
e 258 17 30.0
e 258 178 91.0
e 258 133 7.0
e 258 150 49.0
e 258 50 84.0
e 258 118 7.0
e 258 278 100.0
e 258 216 46.0
e 258 213 5.0
e 258 179 62.0
e 261 161 2.0
e 266 5 76.0
e 266 150 29.0
e 266 167 1.0
e 266 60 2.0
e 266 81 76.0
e 266 244 26.0
e 266 208 7.0
e 266 118 69.0
e 266 4 67.0
e 266 243 52.0
e 266 154 43.0
e 266 207 26.0
e 266 159 10.0
e 266 123 59.0
e 266 132 82.0
e 266 189 21.0
e 266 32 83.0
e 266 311 70.0
e 266 126 40.0
e 266 238 45.0
e 266 276 89.0
e 266 210 57.0
e 266 51 28.0
e 266 211 92.0
e 266 43 94.0
e 266 267 23.0
e 266 304 35.0
e 266 186 29.0
e 266 184 80.0
e 266 10 43.0
e 266 112 91.0
e 266 306 10.0
e 266 6 50.0
e 266 227 6.0
e 266 152 21.0
e 266 298 13.0
e 267 18 2.0
e 267 133 1.0
e 270 230 24.0
e 270 124 2.0
e 270 8 15.0
e 270 303 10.0
e 270 258 41.0
e 270 54 13.0
e 270 192 9.0
e 271 137 73.0
e 271 96 67.0
e 271 143 59.0
e 271 212 85.0
e 271 247 86.0
e 271 75 36.0
e 271 136 57.0
e 271 272 2.0
e 271 126 10.0
e 271 235 66.0
e 271 93 90.0
e 271 309 4.0
e 271 285 57.0
e 271 307 46.0
e 271 264 28.0
e 271 5 66.0
e 271 50 85.0
e 271 117 23.0
e 271 82 84.0
e 271 72 15.0
e 271 190 36.0
e 271 25 15.0
e 271 155 24.0
e 271 26 29.0
e 271 164 75.0
e 271 64 26.0
e 271 314 83.0
e 271 232 83.0
e 271 109 100.0
e 271 288 10.0
e 271 287 57.0
e 271 289 53.0
e 271 210 60.0
e 271 115 31.0
e 277 264 10.0
e 277 166 4.0
e 277 283 2.0
e 277 110 1.0
e 277 153 1.0
e 279 289 68.0
e 279 252 34.0
e 279 42 14.0
e 279 147 43.0
e 279 122 25.0
e 279 249 65.0
e 279 94 95.0
e 279 44 64.0
e 279 34 22.0
e 279 192 41.0
e 279 162 87.0
e 279 311 69.0
e 279 318 10.0
e 279 248 78.0
e 279 57 81.0
e 279 168 32.0
e 279 75 29.0
e 279 213 11.0
e 279 257 90.0
e 279 185 53.0
e 279 231 89.0
e 279 2 73.0
e 279 59 91.0
e 279 82 71.0
e 279 312 85.0
e 279 214 64.0
e 279 211 83.0
e 279 32 58.0
e 279 269 30.0
e 279 189 86.0
e 279 31 44.0
e 279 212 2.0
e 279 184 69.0
e 279 210 22.0
e 279 51 59.0
e 284 264 1.0
e 284 301 1.0
e 285 227 26.0
e 285 184 44.0
e 285 193 87.0
e 285 38 30.0
e 285 298 95.0
e 285 162 61.0
e 285 124 80.0
e 285 53 81.0
e 285 171 15.0
e 285 51 70.0
e 285 9 43.0
e 285 209 99.0
e 285 189 89.0
e 285 2 96.0
e 285 40 14.0
e 285 141 56.0
e 285 80 24.0
e 285 284 7.0
e 285 231 89.0
e 285 311 20.0
e 285 205 24.0
e 285 61 6.0
e 285 237 32.0
e 285 213 67.0
e 285 92 21.0
e 285 142 82.0
e 285 188 32.0
e 285 84 1.0
e 285 181 50.0
e 285 175 14.0
e 286 26 2.0
e 292 311 1.0
e 292 299 4.0
e 292 308 8.0
e 292 294 19.0
e 292 125 4.0
e 292 81 21.0
e 292 223 9.0
e 292 5 24.0
e 293 173 8.0
e 293 258 82.0
e 297 254 7.0
e 297 228 3.0
e 299 180 81.0
e 299 211 34.0
e 299 40 66.0
e 299 185 88.0
e 299 78 98.0
e 299 188 19.0
e 299 300 1.0
e 299 55 29.0
e 299 199 93.0
e 299 207 73.0
e 299 89 60.0
e 299 172 43.0
e 299 181 70.0
e 299 209 53.0
e 299 36 85.0
e 299 216 2.0
e 299 227 36.0
e 299 210 6.0
e 299 237 70.0
e 299 97 95.0
e 299 44 97.0
e 299 186 89.0
e 299 38 75.0
e 299 111 43.0
e 299 312 81.0
e 299 257 41.0
e 299 109 100.0
e 299 150 46.0
e 299 27 24.0
e 299 176 98.0
e 299 217 63.0
e 299 173 2.0
e 299 164 84.0
e 299 28 27.0
e 299 275 94.0
e 300 78 24.0
e 300 133 4.0
e 305 183 22.0
e 305 111 25.0
e 305 291 21.0
e 305 155 9.0
e 305 135 2.0
e 305 130 15.0
e 305 66 19.0
e 305 145 9.0
e 305 117 12.0
e 315 164 12.0
e 318 205 4.0
e 318 289 8.0
e 318 194 3.0
e 318 257 18.0
e 318 104 5.0
e 318 131 24.0
e 318 163 1.0
e 318 290 17.0
e 319 142 5.0
e 319 274 3.0
e 319 90 1.0
